
Welcome to IBM(R) ILOG(R) CPLEX(R) Interactive Optimizer 22.1.1.0
  with Simplex, Mixed Integer & Barrier Optimizers
5725-A06 5725-A29 5724-Y48 5724-Y49 5724-Y54 5724-Y55 5655-Y21
Copyright IBM Corp. 1988, 2022.  All Rights Reserved.

Type 'help' for a list of available commands.
Type 'help' followed by a command name for more
information on commands.

CPLEX> Selected objective sense:  MINIMIZE
Selected objective  name:  00000000
Selected RHS        name:  RHS1
Selected bound      name:  BOUND
Problem 'ee.mps' read.
Read time = 0.02 sec. (3.17 ticks)
CPLEX> New value for time limit in seconds: 7200
CPLEX> New value for parallel optimization mode: -1
CPLEX> New value for default parallel thread count: 40
CPLEX> New value for mixed integer optimality gap tolerance: 1e-13
CPLEX> Version identifier: 22.1.1.0 | 2022-11-28 | 9160aff4d
CPXPARAM_Threads                                 40
CPXPARAM_Parallel                                -1
CPXPARAM_TimeLimit                               7200
CPXPARAM_MIP_Tolerances_MIPGap                   1e-13
Found incumbent of value 0.000000 after 0.00 sec. (0.31 ticks)
Tried aggregator 2 times.
MIP Presolve eliminated 180 rows and 2745 columns.
MIP Presolve modified 6090 coefficients.
Aggregator did 713 substitutions.
Reduced MIP has 3636 rows, 7835 columns, and 28932 nonzeros.
Reduced MIP has 7835 binaries, 0 generals, 0 SOSs, and 0 indicators.
Presolve time = 0.07 sec. (68.89 ticks)
Probing time = 0.03 sec. (5.78 ticks)
Tried aggregator 1 time.
Detecting symmetries...
Reduced MIP has 3636 rows, 7835 columns, and 28932 nonzeros.
Reduced MIP has 7835 binaries, 0 generals, 0 SOSs, and 0 indicators.
Presolve time = 0.02 sec. (21.99 ticks)
Probing time = 0.02 sec. (5.59 ticks)
Clique table members: 18782.
MIP emphasis: balance optimality and feasibility.
MIP search method: dynamic search.
Parallel mode: opportunistic, using up to 40 threads.
Root relaxation solution time = 0.10 sec. (99.66 ticks)

        Nodes                                         Cuts/
   Node  Left     Objective  IInf  Best Integer    Best Bound    ItCnt     Gap

*     0+    0                            0.0000  -1.54000e+13              --- 
*     0+    0                      -4.59000e+12  -1.54000e+13           235.51%
*     0+    0                      -5.79000e+12  -1.54000e+13           165.98%
*     0+    0                      -6.00000e+12  -1.54000e+13           156.67%
      0     0  -1.53900e+13    22  -6.00000e+12  -1.53900e+13     1700  156.50%
*     0+    0                      -1.53900e+13  -1.53900e+13             0.00%
      0     0  -1.53900e+13    83  -1.53900e+13      Cuts: 38     2158    0.00%
*     0+    0                      -1.53900e+13  -1.53900e+13             0.00%
      0     0  -1.53900e+13   123  -1.53900e+13      Cuts: 43     2559    0.00%

Repeating presolve.
Tried aggregator 2 times.
MIP Presolve eliminated 1966 rows and 4438 columns.
MIP Presolve added 2 rows and 0 columns.
MIP Presolve modified 4 coefficients.
Aggregator did 693 substitutions.
Reduced MIP has 979 rows, 2613 columns, and 9083 nonzeros.
Reduced MIP has 2613 binaries, 0 generals, 0 SOSs, and 0 indicators.
Presolve time = 0.04 sec. (44.24 ticks)
Probing time = 0.00 sec. (3.82 ticks)
Tried aggregator 1 time.
Detecting symmetries...
Reduced MIP has 979 rows, 2613 columns, and 9083 nonzeros.
Reduced MIP has 2613 binaries, 0 generals, 0 SOSs, and 0 indicators.
Presolve time = 0.01 sec. (6.00 ticks)
Represolve time = 0.07 sec. (64.16 ticks)
Probing time = 0.00 sec. (3.79 ticks)
Clique table members: 6136.
MIP emphasis: balance optimality and feasibility.
MIP search method: dynamic search.
Parallel mode: opportunistic, using up to 40 threads.
Root relaxation solution time = 0.05 sec. (27.26 ticks)

        Nodes                                         Cuts/
   Node  Left     Objective  IInf  Best Integer    Best Bound    ItCnt     Gap

*     0+    0                      -1.53900e+13  -1.53900e+13             0.00%
      0     0  -1.53900e+13    76  -1.53900e+13  -1.53900e+13     3430    0.00%
      0     0  -1.53900e+13   114  -1.53900e+13      Cuts: 65     3576    0.00%
      0     0  -1.53900e+13   159  -1.53900e+13      Cuts: 63     3991    0.00%
*     0+    0                      -1.53900e+13  -1.53900e+13             0.00%
      0     2  -1.53900e+13   148  -1.53900e+13  -1.53900e+13     3991    0.00%
Elapsed time = 1.84 sec. (1203.45 ticks, tree = 0.02 MB, solutions = 7)
   1469   138        cutoff        -1.53900e+13  -1.53900e+13    62593    0.00%
   2848   194  -1.53900e+13   232  -1.53900e+13  -1.53900e+13   104947    0.00%
   3912    37  -1.53900e+13   181  -1.53900e+13  -1.53900e+13   327550    0.00%
   5062   161  -1.53900e+13    96  -1.53900e+13  -1.53900e+13   453140    0.00%
   6354   248        cutoff        -1.53900e+13  -1.53900e+13   542906    0.00%
   7481   187        cutoff        -1.53900e+13  -1.53900e+13   483849    0.00%
   8516   163        cutoff        -1.53900e+13  -1.53900e+13   459991    0.00%
   9326   243  -1.53900e+13   138  -1.53900e+13  -1.53900e+13   537641    0.00%
   9907   311  -1.53900e+13    51  -1.53900e+13  -1.53900e+13   601054    0.00%

GUB cover cuts applied:  2
Clique cuts applied:  20
Cover cuts applied:  914
Flow cuts applied:  6
Mixed integer rounding cuts applied:  4
Zero-half cuts applied:  12
Lift and project cuts applied:  19
Gomory fractional cuts applied:  24

Root node processing (before b&c):
  Real time             =    1.62 sec. (1203.57 ticks)
Parallel b&c, 40 threads:
  Real time             =    3.52 sec. (2969.75 ticks)
  Sync time (average)   =    0.83 sec.
  Wait time (average)   =    0.00 sec.
                          ------------
Total (root+branch&cut) =    5.14 sec. (4173.32 ticks)

Solution pool: 12 solutions saved.

MIP - Integer optimal solution:  Objective = -1.5389999988e+13
Solution time =    5.23 sec.  Iterations = 927908  Nodes = 10707
Deterministic time = 4173.35 ticks  (798.17 ticks/sec)

CPLEX> Solution 'p13' written to file 'ee.sol'.
CPLEX> 